# Licensed under the GPL2. See the LAMMPS GPL2 licence in the project root for license information.
# 3d Lennard-Jones melt

units		lj
atom_style	atomic

atom_modify     map array
lattice		fcc 0.8442
region		box block 0 4 0 4 0 4
create_box	1 box
create_atoms	1 box
mass		1 3.0

velocity	all create 3.0 87287

pair_style	lj/cut 2.5
pair_coeff	1 1 1.0 1.0 2.5

neighbor	0.3 bin
neigh_modify	every 20 delay 0 check no


python         post_force_callback here """
from lammps import lammps
from narupa.lammps import LammpsImd
h = LammpsImd()

def post_force_callback(lmp,v):
  h.lammps_hook(lmp)

"""

fix		1 all nve
fix     3 all python/invoke 1 post_force post_force_callback

#dump		id all atom 50 dump.melt

#dump		2 all image 25 image.*.jpg type type &
#		axes yes 0.8 0.02 view 60 -30
#dump_modify	2 pad 3

#dump		3 all movie 25 movie.mpg type type &
#		axes yes 0.8 0.02 view 60 -30
#dump_modify	3 pad 3

thermo		50
run		500000
